150 194 144 173 49 124 129 123 104 86 135 46 187 28 148 32 90 45 40 112 71 161 167 177 31 5 44 12 132 182 17 6 85 9 109 14 138 176 165 183 146 154 30 121 156 140 100 92 37 22 25 131 106 105 99 163 16 8 197 137 54 184 110 107 174 87 93 179 53 170 67 178 69 195 83 158 126 166 1 24 143 79 198 20 7 117 139 78 169 57 128 29 70 171 193 127 4 181 13 76 152 35 60 101 122 102 190 62 39 118 48 164 0 91 51 175 111 55 10 125 134 42 11 84 65 21 18 68 43 41 97 75 56 23 94 108 142 33 172 180 26 162 119 34 199 38 191 186 136 149 81 77 52 73 63 82 196 61 145 89 116 185 50 160 147 59 58 66 80 120 88 153 72 192 15 98 133 155 188 103 189 74 95 27 114 113 19 141 168 157 130 47 2 159 64 36 96 115 3 151 

